Instance name : R106
Authors : bauke
Date :    21-05-13
Reference : N/A
Solution
Route 1 : 5 45 83 18 8 84 17 60 89
Route 2 : 21 72 39 23 67 55 54 4 25
Route 3 : 27 69 76 40 53
Route 4 : 28 26 73 41 22 75 56 74 2 58
Route 5 : 48 47 36 19 49 46 82 7 52
Route 6 : 50 33 29 79 81 78 68 24 80 12
Route 7 : 59 37 14 44 38 86 43 100 98 93
Route 8 : 62 88 30 20 66 32 70 1
Route 9 : 63 64 11 90 10 31
Route 10 : 65 71 51 9 35 34 3 77
Route 11 : 94 92 42 15 57 87 97 95 13
Route 12 : 96 85 91 16 61 99 6

